NAME : single
TYPE : ATSP
DIMENSION : 25
EDGE_WEIGHT_TYPE : EXPLICIT
EDGE_WEIGHT_FORMAT : FULL_MATRIX
EDGE_WEIGHT_SECTION
0 1016 1120 1344 1367 1344 1289 1165 1396 1056 1370 927 1142 961 1000 1047 1174 1091 1085 823 740 799 972 744 415 
0 0 88 927 804 823 492 581 857 435 146 319 580 379 424 390 885 422 241 312 656 311 297 388 1015 
0 88 0 774 722 844 415 554 844 366 175 337 546 394 461 348 920 395 185 437 738 433 250 482 1233 
0 927 774 0 133 293 536 175 61 311 597 482 325 404 360 464 529 383 842 1103 954 599 505 1300 1452 
0 804 722 133 0 159 455 141 154 280 578 466 322 362 320 340 743 291 766 1160 738 609 410 1231 1363 
0 823 844 293 159 0 442 240 285 365 566 469 292 420 394 415 992 365 821 1072 991 601 500 1179 1462 
0 492 415 536 455 442 0 324 499 239 309 300 236 276 294 241 644 204 485 771 769 424 234 825 1534 
0 581 554 175 141 240 324 0 198 226 391 293 142 190 149 234 626 206 593 989 676 410 269 1124 1205 
0 857 844 61 154 285 499 198 0 411 682 564 341 507 462 504 671 425 851 1213 1135 737 526 1402 1550 
0 435 366 311 280 365 239 226 411 0 224 207 293 176 140 65 616 166 487 737 572 240 133 846 1157 
0 146 175 597 578 566 309 391 682 224 0 175 330 204 247 226 648 282 192 480 520 204 220 525 1028 
0 319 337 482 466 469 300 293 564 207 175 0 221 74 118 215 545 225 369 682 475 238 288 770 1016 
0 580 546 325 322 292 236 142 341 293 330 221 0 186 162 298 452 140 540 793 703 363 206 895 1288 
0 379 394 404 362 420 276 190 507 176 204 74 186 0 44 184 514 256 415 738 469 206 280 870 1022 
0 424 461 360 320 394 294 149 462 140 247 118 162 44 0 148 598 292 484 786 540 258 244 962 1043 
0 390 348 464 340 415 241 234 504 65 226 215 298 184 148 0 593 158 487 752 538 183 96 856 1120 
0 885 920 529 743 992 644 626 671 616 648 545 452 514 598 593 0 341 755 1015 387 479 508 987 1176 
0 422 395 383 291 365 204 206 425 166 282 225 140 256 292 158 341 0 483 789 562 261 136 886 1126 
0 241 185 842 766 821 485 593 851 487 192 369 540 415 484 487 755 483 0 306 608 377 407 349 1107 
0 312 437 1103 1160 1072 771 989 1213 737 480 682 793 738 786 752 1015 789 306 0 702 572 629 83 768 
0 656 738 954 738 991 769 676 1135 572 520 475 703 469 540 538 387 562 608 702 0 296 496 751 813 
0 311 433 599 609 601 424 410 737 240 204 238 363 206 258 183 479 261 377 572 296 0 158 690 909 
0 297 250 505 410 500 234 269 526 133 220 288 206 280 244 96 508 136 407 629 496 158 0 667 1044 
0 388 482 1300 1231 1179 825 1124 1402 846 525 770 895 870 962 856 987 886 349 83 751 690 667 0 657 
0 1015 1233 1452 1363 1462 1534 1205 1550 1157 1028 1016 1288 1022 1043 1120 1176 1126 1107 768 813 909 1044 657 0 
EOF